units metal
boundary p p p
atom_style atomic
timestep 0.001
box tilt large
variable li equal 1.0
variable lf equal 0.0
pair_style eam/alloy
read_data conf.equilibration.data
pair_coeff * * tests/Cu01.eam.alloy Cu
mass 1 63.546
group g1 type 1
group g2 type 2
run 0
change_box all x final 0.0 18.075000 y final 0.0 18.075000 z final 0.0 18.075000 remap units box
velocity all create 500.000000 7271 mom yes rot yes dist gaussian
fix f1 all npt temp 500.000000 500.000000 0.100000 iso 0.000000 0.000000 0.100000
thermo_style custom step pe
thermo 1000
run 2500
variable flambda equal ramp(${li},${lf})
variable blambda equal ramp(${lf},${li})
pair_style hybrid/scaled v_flambda eam/alloy v_blambda eam/fs
pair_coeff * * eam/alloy tests/Cu01.eam.alloy Cu
pair_coeff * * eam/fs examples/potentials/Cu1.eam.fs Cu
compute c1 all pair eam/alloy
compute c2 all pair eam/fs
variable step equal step
variable dU1 equal c_c1/atoms
variable dU2 equal c_c2/atoms
thermo_style custom step v_dU1 v_dU2
thermo 1000
fix f2 all print 1 "${dU1} ${dU2} ${flambda}" title "# dU_1[eV/atom] dU_2[eV/atom] lambda" screen no file forward_1.dat
run 5000
unfix f2
uncompute c1
uncompute c2
pair_style eam/fs
pair_coeff * * examples/potentials/Cu1.eam.fs Cu
thermo_style custom step pe
thermo 1000
run 2500
variable flambda equal ramp(${lf},${li})
variable blambda equal ramp(${li},${lf})
pair_style hybrid/scaled v_flambda eam/alloy v_blambda eam/fs
pair_coeff * * eam/alloy tests/Cu01.eam.alloy Cu
pair_coeff * * eam/fs examples/potentials/Cu1.eam.fs Cu
compute c1 all pair eam/alloy
compute c2 all pair eam/fs
variable step equal step
variable dU1 equal c_c1/atoms
variable dU2 equal c_c2/atoms
thermo_style custom step v_dU1 v_dU2
thermo 1000
fix f2 all print 1 "${dU1} ${dU2} ${flambda}" title "# dU_1[eV/atom] dU_2[eV/atom] lambda" screen no file backward_1.dat
run 5000
unfix f2
uncompute c1
uncompute c2
