units metal
boundary p p p
atom_style atomic
timestep 0.001
box tilt large
pair_style eam/alloy
read_data structure.data
pair_coeff * * tests/Cu01.eam.alloy Cu
mass 1 63.546
velocity all create 2800.000000 7271
variable mvol equal vol
variable mlx equal lx
variable mly equal ly
variable mlz equal lz
variable mpress equal press
variable mpe equal pe/atoms
variable metotal equal etotal/atoms
variable mtemp equal temp
velocity all create 2800.000000 861
fix nh1 all npt temp 2800.000000 2800.000000 0.100000 iso 0.000000 0.000000 0.100000
run 1000
unfix nh1
dump 2 all custom 1 traj.melt id type mass x y z vx vy vz
run 0
undump 2
velocity all create 3080.000000 5391
fix nh1 all npt temp 3080.000000 3080.000000 0.100000 iso 0.000000 0.000000 0.100000
run 1000
unfix nh1
dump 2 all custom 1 traj.melt id type mass x y z vx vy vz
run 0
undump 2
velocity all create 3360.000000 5192
fix nh1 all npt temp 3360.000000 3360.000000 0.100000 iso 0.000000 0.000000 0.100000
run 1000
unfix nh1
dump 2 all custom 1 traj.melt id type mass x y z vx vy vz
run 0
undump 2
velocity all create 1400.000000 5735
fix nh1 all npt temp 1400.000000 1400.000000 0.100000 iso 0.000000 0.000000 0.100000
thermo_style custom step pe press vol etotal temp lx ly lz
thermo 10
run 1000
unfix nh1
fix nh1 all npt temp 1400.000000 1400.000000 0.100000 iso 0.000000 0.000000 0.100000
fix 2 all ave/time 10 10 100 v_mlx v_mly v_mlz v_mpress v_mpe v_metotal v_mtemp title2 "# TimeStep lx[A] ly[A] lz[A] press[bar] pe[eV/atom] etotal[eV/atom] temp[K]" file avg.dat
run 1000
unfix nh1
unfix 2
dump 2 all custom 1 traj.equilibration_stage1.dat id type mass x y z vx vy vz
run 0
undump 2
dump 2 all custom 1 traj.equilibration_stage2.dat id type mass x y z vx vy vz
run 0
undump 2
write_data conf.equilibration.data
