units metal
boundary p p p
atom_style atomic
timestep 0.001
box tilt large
echo log
variable li equal 1.000000
variable lf equal 0.571429
pair_style eam/alloy
read_data conf.equilibration.data
pair_coeff * * tests/Cu01.eam.alloy Cu
mass 1 63.546
run 0
change_box all x final 0.0 18.075000 y final 0.0 18.075000 z final 0.0 18.075000 remap units box
fix 1 all npt temp 400.000000 400.000000 0.100000 iso 0.000000 0.000000 0.100000
run 2500
unfix 1
variable step equal step
variable dU equal pe/atoms
variable lambda equal ramp(${li},${lf})
fix f2 all npt temp 400.000000 700.000000 0.100000 iso 0.000000 0.000000 0.100000
fix f3 all print 1 "${dU} $(press) $(vol) ${lambda}" screen no file ts.forward_1.dat
run 5000
unfix f3
unfix f2
fix 1 all npt temp 700.000000 700.000000 0.100000 iso 0.000000 0.000000 0.100000
run 2500
unfix 1
dump 2 all custom 1 traj.temp.dat id type mass x y z vx vy vz
run 0
undump 2
dump 2 all custom 1 traj.temp.dat id type mass x y z vx vy vz
run 0
undump 2
variable lambda equal ramp(${lf},${li})
fix f2 all npt temp 400.000000 400.000000 0.100000 iso 0.000000 0.000000 0.100000
fix f3 all print 1 "${dU} $(press) $(vol) ${lambda}" screen no file ts.backward_1.dat
run 5000
unfix f3
unfix f2
